NAME          
ROWS
 N  OBJ
 L  c1
COLUMNS
    MARKER    'MARKER'                 'INTORG'
    x[1]      c1        739
    x[1]      OBJ       -647
    x[2]      c1        192
    x[2]      OBJ       -197
    x[3]      c1        28
    x[3]      OBJ       -34
    x[4]      c1        473
    x[4]      OBJ       -482
    x[5]      c1        436
    x[5]      OBJ       -487
    x[6]      c1        842
    x[6]      OBJ       -878
    x[7]      c1        643
    x[7]      OBJ       -555
    x[8]      c1        -59
    x[8]      OBJ       -22
    x[9]      c1        317
    x[9]      OBJ       -374
    x[10]     c1        339
    x[10]     OBJ       -327
    x[11]     c1        602
    x[11]     OBJ       -622
    x[12]     c1        231
    x[12]     OBJ       -327
    x[13]     c1        479
    x[13]     OBJ       -380
    x[14]     c1        910
    x[14]     OBJ       -927
    x[15]     c1        434
    x[15]     OBJ       -348
    x[16]     c1        376
    x[16]     OBJ       -444
    x[17]     c1        315
    x[17]     OBJ       -358
    x[18]     c1        792
    x[18]     OBJ       -809
    x[19]     c1        556
    x[19]     OBJ       -531
    x[20]     c1        632
    x[20]     OBJ       -720
RHS
    rhs       c1        4638
RANGES
BOUNDS
 BV bounds    x[1]
 BV bounds    x[2]
 BV bounds    x[3]
 BV bounds    x[4]
 BV bounds    x[5]
 BV bounds    x[6]
 BV bounds    x[7]
 BV bounds    x[8]
 BV bounds    x[9]
 BV bounds    x[10]
 BV bounds    x[11]
 BV bounds    x[12]
 BV bounds    x[13]
 BV bounds    x[14]
 BV bounds    x[15]
 BV bounds    x[16]
 BV bounds    x[17]
 BV bounds    x[18]
 BV bounds    x[19]
 BV bounds    x[20]
ENDATA
